c description: Graph 3-Colorability of graph: 
c generator: CNFgen (0.9.0)
c copyright: (C) 2012-2020 Massimo Lauria <massimo.lauria@uniroma1.it>
c url: https://massimolauria.net/cnfgen
c
p cnf 60 200
1 2 3 0
-1 -2 0
-1 -3 0
-2 -3 0
4 5 6 0
-4 -5 0
-4 -6 0
-5 -6 0
7 8 9 0
-7 -8 0
-7 -9 0
-8 -9 0
10 11 12 0
-10 -11 0
-10 -12 0
-11 -12 0
13 14 15 0
-13 -14 0
-13 -15 0
-14 -15 0
16 17 18 0
-16 -17 0
-16 -18 0
-17 -18 0
19 20 21 0
-19 -20 0
-19 -21 0
-20 -21 0
22 23 24 0
-22 -23 0
-22 -24 0
-23 -24 0
25 26 27 0
-25 -26 0
-25 -27 0
-26 -27 0
28 29 30 0
-28 -29 0
-28 -30 0
-29 -30 0
31 32 33 0
-31 -32 0
-31 -33 0
-32 -33 0
34 35 36 0
-34 -35 0
-34 -36 0
-35 -36 0
37 38 39 0
-37 -38 0
-37 -39 0
-38 -39 0
40 41 42 0
-40 -41 0
-40 -42 0
-41 -42 0
43 44 45 0
-43 -44 0
-43 -45 0
-44 -45 0
46 47 48 0
-46 -47 0
-46 -48 0
-47 -48 0
49 50 51 0
-49 -50 0
-49 -51 0
-50 -51 0
52 53 54 0
-52 -53 0
-52 -54 0
-53 -54 0
55 56 57 0
-55 -56 0
-55 -57 0
-56 -57 0
58 59 60 0
-58 -59 0
-58 -60 0
-59 -60 0
-1 -10 0
-2 -11 0
-3 -12 0
-1 -16 0
-2 -17 0
-3 -18 0
-1 -34 0
-2 -35 0
-3 -36 0
-4 -19 0
-5 -20 0
-6 -21 0
-4 -25 0
-5 -26 0
-6 -27 0
-7 -19 0
-8 -20 0
-9 -21 0
-7 -28 0
-8 -29 0
-9 -30 0
-7 -34 0
-8 -35 0
-9 -36 0
-7 -49 0
-8 -50 0
-9 -51 0
-10 -19 0
-11 -20 0
-12 -21 0
-10 -22 0
-11 -23 0
-12 -24 0
-10 -37 0
-11 -38 0
-12 -39 0
-10 -52 0
-11 -53 0
-12 -54 0
-10 -58 0
-11 -59 0
-12 -60 0
-13 -16 0
-14 -17 0
-15 -18 0
-13 -22 0
-14 -23 0
-15 -24 0
-13 -28 0
-14 -29 0
-15 -30 0
-13 -34 0
-14 -35 0
-15 -36 0
-13 -40 0
-14 -41 0
-15 -42 0
-13 -58 0
-14 -59 0
-15 -60 0
-16 -49 0
-17 -50 0
-18 -51 0
-16 -55 0
-17 -56 0
-18 -57 0
-19 -37 0
-20 -38 0
-21 -39 0
-19 -40 0
-20 -41 0
-21 -42 0
-19 -46 0
-20 -47 0
-21 -48 0
-19 -52 0
-20 -53 0
-21 -54 0
-22 -34 0
-23 -35 0
-24 -36 0
-22 -46 0
-23 -47 0
-24 -48 0
-22 -49 0
-23 -50 0
-24 -51 0
-25 -37 0
-26 -38 0
-27 -39 0
-25 -49 0
-26 -50 0
-27 -51 0
-28 -34 0
-29 -35 0
-30 -36 0
-28 -55 0
-29 -56 0
-30 -57 0
-31 -34 0
-32 -35 0
-33 -36 0
-31 -43 0
-32 -44 0
-33 -45 0
-34 -40 0
-35 -41 0
-36 -42 0
-34 -49 0
-35 -50 0
-36 -51 0
-34 -55 0
-35 -56 0
-36 -57 0
-40 -55 0
-41 -56 0
-42 -57 0
-52 -55 0
-53 -56 0
-54 -57 0